p edge 32 496
e 1 2 350.0
e 1 3 -770.0
e 1 4 964.0
e 1 5 445.0
e 1 6 739.0
e 1 7 -746.0
e 1 8 941.0
e 1 9 522.0
e 1 10 801.0
e 1 11 703.0
e 1 12 -206.0
e 1 13 -960.0
e 1 14 -344.0
e 1 15 -377.0
e 1 16 801.0
e 1 17 -555.0
e 1 18 -430.0
e 1 19 -723.0
e 1 20 -596.0
e 1 21 938.0
e 1 22 -587.0
e 1 23 426.0
e 1 24 -868.0
e 1 25 -170.0
e 1 26 364.0
e 1 27 -773.0
e 1 28 -964.0
e 1 29 248.0
e 1 30 -177.0
e 1 31 119.0
e 1 32 457.0
e 2 3 204.0
e 2 4 -5.0
e 2 5 331.0
e 2 6 628.0
e 2 7 -753.0
e 2 8 900.0
e 2 9 714.0
e 2 10 801.0
e 2 11 -431.0
e 2 12 -431.0
e 2 13 -503.0
e 2 14 -188.0
e 2 15 685.0
e 2 16 251.0
e 2 17 353.0
e 2 18 -203.0
e 2 19 -66.0
e 2 20 663.0
e 2 21 -869.0
e 2 22 747.0
e 2 23 650.0
e 2 24 486.0
e 2 25 916.0
e 2 26 301.0
e 2 27 -32.0
e 2 28 -139.0
e 2 29 700.0
e 2 30 -872.0
e 2 31 -93.0
e 2 32 -30.0
e 3 4 948.0
e 3 5 573.0
e 3 6 -944.0
e 3 7 -736.0
e 3 8 120.0
e 3 9 -443.0
e 3 10 106.0
e 3 11 -473.0
e 3 12 -15.0
e 3 13 -544.0
e 3 14 -82.0
e 3 15 -183.0
e 3 16 -767.0
e 3 17 231.0
e 3 18 606.0
e 3 19 915.0
e 3 20 873.0
e 3 21 633.0
e 3 22 876.0
e 3 23 305.0
e 3 24 -441.0
e 3 25 184.0
e 3 26 984.0
e 3 27 -746.0
e 3 28 15.0
e 3 29 -630.0
e 3 30 -970.0
e 3 31 978.0
e 3 32 -442.0
e 4 5 -686.0
e 4 6 -56.0
e 4 7 945.0
e 4 8 332.0
e 4 9 -560.0
e 4 10 467.0
e 4 11 -993.0
e 4 12 614.0
e 4 13 -848.0
e 4 14 134.0
e 4 15 -154.0
e 4 16 457.0
e 4 17 328.0
e 4 18 -862.0
e 4 19 862.0
e 4 20 454.0
e 4 21 -283.0
e 4 22 57.0
e 4 23 693.0
e 4 24 556.0
e 4 25 503.0
e 4 26 347.0
e 4 27 836.0
e 4 28 270.0
e 4 29 -758.0
e 4 30 643.0
e 4 31 193.0
e 4 32 -264.0
e 5 6 -593.0
e 5 7 290.0
e 5 8 -991.0
e 5 9 671.0
e 5 10 713.0
e 5 11 818.0
e 5 12 -909.0
e 5 13 -296.0
e 5 14 894.0
e 5 15 -484.0
e 5 16 18.0
e 5 17 -493.0
e 5 18 437.0
e 5 19 -50.0
e 5 20 75.0
e 5 21 658.0
e 5 22 347.0
e 5 23 -778.0
e 5 24 -870.0
e 5 25 769.0
e 5 26 49.0
e 5 27 615.0
e 5 28 -863.0
e 5 29 447.0
e 5 30 -859.0
e 5 31 -804.0
e 5 32 -937.0
e 6 7 152.0
e 6 8 -587.0
e 6 9 -939.0
e 6 10 327.0
e 6 11 -926.0
e 6 12 360.0
e 6 13 -437.0
e 6 14 -33.0
e 6 15 -395.0
e 6 16 -573.0
e 6 17 -933.0
e 6 18 339.0
e 6 19 751.0
e 6 20 -746.0
e 6 21 391.0
e 6 22 643.0
e 6 23 -862.0
e 6 24 598.0
e 6 25 658.0
e 6 26 688.0
e 6 27 -983.0
e 6 28 548.0
e 6 29 15.0
e 6 30 -57.0
e 6 31 53.0
e 6 32 -948.0
e 7 8 591.0
e 7 9 394.0
e 7 10 -591.0
e 7 11 -670.0
e 7 12 -877.0
e 7 13 -795.0
e 7 14 750.0
e 7 15 -581.0
e 7 16 -311.0
e 7 17 -968.0
e 7 18 -95.0
e 7 19 387.0
e 7 20 515.0
e 7 21 -538.0
e 7 22 303.0
e 7 23 -884.0
e 7 24 -24.0
e 7 25 -537.0
e 7 26 142.0
e 7 27 -866.0
e 7 28 606.0
e 7 29 22.0
e 7 30 -64.0
e 7 31 -199.0
e 7 32 159.0
e 8 9 -60.0
e 8 10 -488.0
e 8 11 369.0
e 8 12 -969.0
e 8 13 65.0
e 8 14 813.0
e 8 15 -110.0
e 8 16 -563.0
e 8 17 733.0
e 8 18 333.0
e 8 19 -413.0
e 8 20 -601.0
e 8 21 989.0
e 8 22 293.0
e 8 23 -182.0
e 8 24 575.0
e 8 25 -608.0
e 8 26 692.0
e 8 27 -345.0
e 8 28 408.0
e 8 29 -257.0
e 8 30 14.0
e 8 31 997.0
e 8 32 450.0
e 9 10 807.0
e 9 11 57.0
e 9 12 344.0
e 9 13 -728.0
e 9 14 -171.0
e 9 15 848.0
e 9 16 475.0
e 9 17 608.0
e 9 18 -655.0
e 9 19 -397.0
e 9 20 -500.0
e 9 21 845.0
e 9 22 -569.0
e 9 23 16.0
e 9 24 208.0
e 9 25 30.0
e 9 26 104.0
e 9 27 265.0
e 9 28 -280.0
e 9 29 892.0
e 9 30 338.0
e 9 31 -508.0
e 9 32 32.0
e 10 11 387.0
e 10 12 -58.0
e 10 13 183.0
e 10 14 -608.0
e 10 15 472.0
e 10 16 876.0
e 10 17 -223.0
e 10 18 -110.0
e 10 19 -624.0
e 10 20 208.0
e 10 21 -104.0
e 10 22 821.0
e 10 23 356.0
e 10 24 712.0
e 10 25 454.0
e 10 26 -769.0
e 10 27 384.0
e 10 28 969.0
e 10 29 481.0
e 10 30 -236.0
e 10 31 576.0
e 10 32 932.0
e 11 12 885.0
e 11 13 431.0
e 11 14 -199.0
e 11 15 -324.0
e 11 16 -874.0
e 11 17 634.0
e 11 18 -924.0
e 11 19 -848.0
e 11 20 -173.0
e 11 21 -584.0
e 11 22 556.0
e 11 23 111.0
e 11 24 675.0
e 11 25 302.0
e 11 26 -384.0
e 11 27 521.0
e 11 28 248.0
e 11 29 807.0
e 11 30 -441.0
e 11 31 -154.0
e 11 32 -920.0
e 12 13 -180.0
e 12 14 -374.0
e 12 15 -716.0
e 12 16 389.0
e 12 17 -459.0
e 12 18 44.0
e 12 19 -612.0
e 12 20 -970.0
e 12 21 551.0
e 12 22 -12.0
e 12 23 40.0
e 12 24 101.0
e 12 25 -406.0
e 12 26 469.0
e 12 27 -818.0
e 12 28 658.0
e 12 29 580.0
e 12 30 -788.0
e 12 31 739.0
e 12 32 406.0
e 13 14 74.0
e 13 15 -749.0
e 13 16 -743.0
e 13 17 -77.0
e 13 18 -589.0
e 13 19 -114.0
e 13 20 -236.0
e 13 21 537.0
e 13 22 241.0
e 13 23 -429.0
e 13 24 610.0
e 13 25 210.0
e 13 26 -800.0
e 13 27 -309.0
e 13 28 107.0
e 13 29 408.0
e 13 30 -794.0
e 13 31 890.0
e 13 32 72.0
e 14 15 -694.0
e 14 16 564.0
e 14 17 -602.0
e 14 18 -70.0
e 14 19 -628.0
e 14 20 323.0
e 14 21 -261.0
e 14 22 -865.0
e 14 23 -6.0
e 14 24 80.0
e 14 25 579.0
e 14 26 995.0
e 14 27 946.0
e 14 28 665.0
e 14 29 59.0
e 14 30 796.0
e 14 31 -145.0
e 14 32 81.0
e 15 16 18.0
e 15 17 524.0
e 15 18 -304.0
e 15 19 521.0
e 15 20 -337.0
e 15 21 896.0
e 15 22 -684.0
e 15 23 -126.0
e 15 24 -871.0
e 15 25 -231.0
e 15 26 -594.0
e 15 27 -676.0
e 15 28 566.0
e 15 29 -78.0
e 15 30 416.0
e 15 31 590.0
e 15 32 -248.0
e 16 17 -506.0
e 16 18 699.0
e 16 19 291.0
e 16 20 -810.0
e 16 21 -264.0
e 16 22 -266.0
e 16 23 522.0
e 16 24 -463.0
e 16 25 992.0
e 16 26 -409.0
e 16 27 -64.0
e 16 28 918.0
e 16 29 687.0
e 16 30 1.0
e 16 31 630.0
e 16 32 -535.0
e 17 18 -478.0
e 17 19 -320.0
e 17 20 818.0
e 17 21 764.0
e 17 22 106.0
e 17 23 934.0
e 17 24 -808.0
e 17 25 -515.0
e 17 26 -33.0
e 17 27 -302.0
e 17 28 632.0
e 17 29 339.0
e 17 30 84.0
e 17 31 917.0
e 17 32 279.0
e 18 19 -779.0
e 18 20 326.0
e 18 21 389.0
e 18 22 461.0
e 18 23 961.0
e 18 24 406.0
e 18 25 -580.0
e 18 26 -899.0
e 18 27 171.0
e 18 28 380.0
e 18 29 -180.0
e 18 30 674.0
e 18 31 293.0
e 18 32 -645.0
e 19 20 828.0
e 19 21 -943.0
e 19 22 -690.0
e 19 23 830.0
e 19 24 -993.0
e 19 25 -81.0
e 19 26 347.0
e 19 27 -898.0
e 19 28 -913.0
e 19 29 -70.0
e 19 30 587.0
e 19 31 -341.0
e 19 32 779.0
e 20 21 441.0
e 20 22 54.0
e 20 23 -76.0
e 20 24 978.0
e 20 25 -772.0
e 20 26 -499.0
e 20 27 -399.0
e 20 28 -380.0
e 20 29 -317.0
e 20 30 -823.0
e 20 31 617.0
e 20 32 -3.0
e 21 22 433.0
e 21 23 543.0
e 21 24 13.0
e 21 25 -8.0
e 21 26 -540.0
e 21 27 815.0
e 21 28 909.0
e 21 29 979.0
e 21 30 -41.0
e 21 31 -931.0
e 21 32 -159.0
e 22 23 -384.0
e 22 24 695.0
e 22 25 -859.0
e 22 26 946.0
e 22 27 999.0
e 22 28 -435.0
e 22 29 -993.0
e 22 30 -792.0
e 22 31 456.0
e 22 32 321.0
e 23 24 200.0
e 23 25 927.0
e 23 26 174.0
e 23 27 617.0
e 23 28 -770.0
e 23 29 -70.0
e 23 30 151.0
e 23 31 530.0
e 23 32 -703.0
e 24 25 892.0
e 24 26 -705.0
e 24 27 -907.0
e 24 28 568.0
e 24 29 976.0
e 24 30 -779.0
e 24 31 464.0
e 24 32 662.0
e 25 26 7.0
e 25 27 -692.0
e 25 28 403.0
e 25 29 430.0
e 25 30 380.0
e 25 31 -290.0
e 25 32 -453.0
e 26 27 -157.0
e 26 28 -845.0
e 26 29 380.0
e 26 30 513.0
e 26 31 -283.0
e 26 32 -275.0
e 27 28 -887.0
e 27 29 39.0
e 27 30 -966.0
e 27 31 874.0
e 27 32 -551.0
e 28 29 80.0
e 28 30 362.0
e 28 31 -853.0
e 28 32 -601.0
e 29 30 -572.0
e 29 31 -390.0
e 29 32 -540.0
e 30 31 803.0
e 30 32 632.0
e 31 32 -985.0
